p tw 240 3601 7 
1 8 
1 41 
2 9 
2 10 
2 42 
3 7 
3 10 
3 131 
4 8 
4 9 
4 132 
5 7 
5 9 
5 221 
6 8 
6 10 
6 222 
11 17 
11 18 
11 21 
12 19 
12 20 
12 22 
13 17 
13 20 
13 51 
14 18 
14 19 
14 52 
15 17 
15 19 
15 101 
16 18 
16 20 
16 102 
21 27 
21 28 
22 29 
22 30 
23 27 
23 30 
23 121 
24 28 
24 29 
24 122 
25 27 
25 29 
25 133 
26 28 
26 30 
26 134 
31 37 
31 38 
31 91 
32 39 
32 40 
32 92 
33 37 
33 40 
33 181 
34 38 
34 39 
34 182 
35 37 
35 39 
35 211 
36 38 
36 40 
36 212 
41 47 
41 48 
42 49 
42 50 
43 47 
43 50 
43 81 
44 48 
44 49 
44 82 
45 47 
45 49 
45 171 
46 48 
46 50 
46 172 
51 57 
51 58 
52 59 
52 60 
53 57 
53 60 
53 71 
54 58 
54 59 
54 72 
55 57 
55 59 
55 223 
56 58 
56 60 
56 224 
61 67 
61 68 
61 83 
62 69 
62 70 
62 84 
63 67 
63 70 
63 173 
64 68 
64 69 
64 174 
65 67 
65 69 
65 183 
66 68 
66 70 
66 184 
71 77 
71 78 
72 79 
72 80 
73 77 
73 80 
73 111 
74 78 
74 79 
74 112 
75 77 
75 79 
75 191 
76 78 
76 80 
76 192 
81 87 
81 88 
82 89 
82 90 
83 87 
83 90 
84 88 
84 89 
85 87 
85 89 
85 135 
86 88 
86 90 
86 136 
91 97 
91 98 
92 99 
92 100 
93 97 
93 100 
93 213 
94 98 
94 99 
94 214 
95 97 
95 99 
95 231 
96 98 
96 100 
96 232 
101 107 
101 108 
102 109 
102 110 
103 107 
103 110 
103 151 
104 108 
104 109 
104 152 
105 107 
105 109 
105 193 
106 108 
106 110 
106 194 
111 117 
111 118 
112 119 
112 120 
113 117 
113 120 
113 153 
114 118 
114 119 
114 154 
115 117 
115 119 
115 201 
116 118 
116 120 
116 202 
121 127 
121 128 
122 129 
122 130 
123 127 
123 130 
123 141 
124 128 
124 129 
124 142 
125 127 
125 129 
125 195 
126 128 
126 130 
126 196 
131 137 
131 138 
132 139 
132 140 
133 137 
133 140 
134 138 
134 139 
135 137 
135 139 
136 138 
136 140 
141 147 
141 148 
142 149 
142 150 
143 147 
143 150 
143 203 
144 148 
144 149 
144 204 
145 147 
145 149 
145 225 
146 148 
146 150 
146 226 
151 157 
151 158 
152 159 
152 160 
153 157 
153 160 
154 158 
154 159 
155 157 
155 159 
155 215 
156 158 
156 160 
156 216 
161 167 
161 168 
161 175 
162 169 
162 170 
162 176 
163 167 
163 170 
163 185 
164 168 
164 169 
164 186 
165 167 
165 169 
165 233 
166 168 
166 170 
166 234 
171 177 
171 178 
172 179 
172 180 
173 177 
173 180 
174 178 
174 179 
175 177 
175 179 
176 178 
176 180 
181 187 
181 188 
182 189 
182 190 
183 187 
183 190 
184 188 
184 189 
185 187 
185 189 
186 188 
186 190 
191 197 
191 198 
192 199 
192 200 
193 197 
193 200 
194 198 
194 199 
195 197 
195 199 
196 198 
196 200 
201 207 
201 208 
202 209 
202 210 
203 207 
203 210 
204 208 
204 209 
205 207 
205 209 
205 235 
206 208 
206 210 
206 236 
211 217 
211 218 
212 219 
212 220 
213 217 
213 220 
214 218 
214 219 
215 217 
215 219 
216 218 
216 220 
221 227 
221 228 
222 229 
222 230 
223 227 
223 230 
224 228 
224 229 
225 227 
225 229 
226 228 
226 230 
231 237 
231 238 
232 239 
232 240 
233 237 
233 240 
234 238 
234 239 
235 237 
235 239 
236 238 
236 240 
